NAME : zqloutput/eax-hard-simple-rescaleandround/50-1.tsp
TYPE : TSP
DIMENSION : 50
EDGE_WEIGHT_TYPE : EUC_2D
NODE_COORD_SECTION
1 188097 606512
2 650357 786356
3 478891 13077
4 339940 866336
5 289014 52981
6 278964 499912
7 794996 860349
8 387862 376689
9 198594 878442
10 259600 668745
11 418221 665337
12 891647 274580
13 427949 323057
14 315036 414408
15 419743 789697
16 203005 560174
17 973623 804743
18 639917 947081
19 3265 230422
20 589350 777658
21 851347 241519
22 4548 91053
23 179070 210132
24 31183 405146
25 863853 577596
26 308797 253329
27 321313 704844
28 703798 849855
29 170960 101207
30 481422 443738
31 967090 363656
32 110529 586732
33 931727 585579
34 245789 474326
35 670744 309198
36 747289 23527
37 166929 727727
38 594270 624518
39 440842 32383
40 399610 782587
41 603227 813428
42 341537 606226
43 192241 94680
44 671819 116102
45 970047 141446
46 612040 635921
47 852979 24046
48 908940 943881
49 654377 65613
50 494194 983855
EOF
